Grasp exp. instance_n_25_m_10_id_4.lp tipoLifted 0 szPool 5 nIteration 50 alpha 1 
Academic license - for non-commercial use only
Read LP format model from file ../input/instancesGenerated/instance_n_25_m_10_id_4.lp
Reading time = 0.00 seconds
: 10 rows, 25 columns, 113 nonzeros
Optimize a model with 10 rows, 25 columns and 113 nonzeros
Variable types: 0 continuous, 25 integer (25 binary)
Coefficient statistics:
  Matrix range     [1e+00, 1e+01]
  Objective range  [1e+00, 1e+01]
  Bounds range     [1e+00, 1e+00]
  RHS range        [2e+01, 4e+01]
Found heuristic solution: objective 52.0000000

Explored 0 nodes (0 simplex iterations) in 0.00 seconds
Thread count was 1 (of 8 available processors)

Solution count 1: 52 
No other solutions better than 0

Solution limit reached
Best objective 5.200000000000e+01, best bound -, gap -
C_1:	 6.00 x_4  = 1.000000 + 7.00 x_5  = 0.000000 + 3.00 x_7  = 1.000000 + 8.00 x_8  = 0.000000 + 7.00 x_10  = 0.000000 + 8.00 x_17  = 0.251070 + 6.00 x_20  = 1.000000 + 6.00 x_22  = 1.000000 + 10.00 x_25  = 0.699144 <= 30.00
C_2:	 6.00 x_5  = 0.000000 + 7.00 x_8  = 0.000000 + 7.00 x_12  = 1.000000 + 1.00 x_13  = 0.000000 + 2.00 x_14  = 1.000000 + 2.00 x_17  = 0.251070 + 6.00 x_18  = 0.000000 + 4.00 x_21  = 0.466132 + 2.00 x_24  = 1.000000 + 7.00 x_25  = 0.699144 <= 22.00
C_3:	 7.00 x_4  = 1.000000 + 5.00 x_5  = 0.000000 + 4.00 x_8  = 0.000000 + 7.00 x_9  = 1.000000 + 4.00 x_15  = 0.500000 + 5.00 x_16  = 0.000000 + 10.00 x_18  = 0.000000 + 7.00 x_19  = 0.000000 + 10.00 x_22  = 1.000000 + 6.00 x_24  = 1.000000 <= 32.00
C_4:	 10.00 x_1  = 0.505918 + 5.00 x_4  = 1.000000 + 5.00 x_5  = 0.000000 + 7.00 x_6  = 0.458824 + 2.00 x_8  = 0.000000 + 7.00 x_9  = 1.000000 + 7.00 x_10  = 0.000000 + 6.00 x_11  = 1.000000 + 6.00 x_14  = 1.000000 + 3.00 x_18  = 0.000000 + 8.00 x_21  = 0.466132 + 2.00 x_22  = 1.000000 + 8.00 x_23  = 0.000000 <= 38.00
C_5:	 10.00 x_2  = 1.000000 + 1.00 x_4  = 1.000000 + 5.00 x_6  = 0.458824 + 4.00 x_7  = 1.000000 + 2.00 x_8  = 0.000000 + 9.00 x_9  = 1.000000 + 10.00 x_10  = 0.000000 + 3.00 x_13  = 0.000000 + 3.00 x_16  = 0.000000 + 10.00 x_17  = 0.251070 + 9.00 x_21  = 0.466132 <= 33.00
C_6:	 6.00 x_6  = 0.458824 + 2.00 x_7  = 1.000000 + 3.00 x_9  = 1.000000 + 8.00 x_12  = 1.000000 + 7.00 x_13  = 0.000000 + 5.00 x_16  = 0.000000 + 4.00 x_17  = 0.251070 + 2.00 x_19  = 0.000000 + 4.00 x_20  = 1.000000 + 1.00 x_23  = 0.000000 <= 21.00
C_7:	 1.00 x_5  = 0.000000 + 8.00 x_9  = 1.000000 + 10.00 x_10  = 0.000000 + 2.00 x_13  = 0.000000 + 3.00 x_14  = 1.000000 + 10.00 x_15  = 0.500000 + 9.00 x_16  = 0.000000 + 4.00 x_17  = 0.251070 + 5.00 x_22  = 1.000000 + 3.00 x_23  = 0.000000 <= 27.00
C_8:	 3.00 x_1  = 0.505918 + 6.00 x_2  = 1.000000 + 4.00 x_4  = 1.000000 + 2.00 x_5  = 0.000000 + 10.00 x_6  = 0.458824 + 6.00 x_8  = 0.000000 + 6.00 x_10  = 0.000000 + 4.00 x_12  = 1.000000 + 6.00 x_13  = 0.000000 + 6.00 x_14  = 1.000000 + 6.00 x_15  = 0.500000 + 3.00 x_16  = 0.000000 + 7.00 x_25  = 0.699144 <= 34.00
C_9:	 7.00 x_3  = 1.000000 + 5.00 x_5  = 0.000000 + 10.00 x_6  = 0.458824 + 8.00 x_8  = 0.000000 + 5.00 x_9  = 1.000000 + 3.00 x_11  = 1.000000 + 5.00 x_14  = 1.000000 + 8.00 x_15  = 0.500000 + 6.00 x_17  = 0.251070 + 2.00 x_20  = 1.000000 + 10.00 x_23  = 0.000000 <= 34.00
C_10:	 10.00 x_1  = 0.505918 + 2.00 x_2  = 1.000000 + 7.00 x_3  = 1.000000 + 5.00 x_4  = 1.000000 + 4.00 x_5  = 0.000000 + 8.00 x_7  = 1.000000 + 1.00 x_8  = 0.000000 + 5.00 x_11  = 1.000000 + 6.00 x_15  = 0.500000 + 10.00 x_16  = 0.000000 + 8.00 x_17  = 0.251070 + 10.00 x_18  = 0.000000 + 1.00 x_19  = 0.000000 + 2.00 x_21  = 0.466132 + 3.00 x_23  = 0.000000 + 6.00 x_24  = 1.000000 <= 44.00
Solution initial: 98.423815 
Number Constraints Used in Cover:10
GRASP Method!
Number cuts repeat: 0
value: 98.423815
Number Constraints Used in Cover:15
GRASP Method!
Number cuts repeat: 0
value: 98.423815
Number Constraints Used in Cover:19
GRASP Method!
Number cuts repeat: 0
value: 98.423815
Number Constraints Used in Cover:22
GRASP Method!
Number cuts repeat: 0
value: 98.423815
Number Constraints Used in Cover:29
GRASP Method!
Number cuts repeat: 0
value: 98.423815
Number Constraints Used in Cover:38
GRASP Method!
Number cuts repeat: 0
value: 98.423815
Number Constraints Used in Cover:42
GRASP Method!
Number cuts repeat: 0
value: 98.423815
Number Constraints Used in Cover:51
GRASP Method!
Number cuts repeat: 0
value: 98.423815
Number Constraints Used in Cover:64
GRASP Method!
Number cuts repeat: 0
value: 98.423815
Number Constraints Used in Cover:74
GRASP Method!
Number cuts repeat: 0
value: 98.423815
Number Constraints Used in Cover:84
GRASP Method!
Number cuts repeat: 0
value: 98.423815
Number Constraints Used in Cover:91
GRASP Method!
Number cuts repeat: 0
value: 98.423815
Number Constraints Used in Cover:97
GRASP Method!
Number cuts repeat: 0
value: 98.423815
Number Constraints Used in Cover:100
GRASP Method!
Number cuts repeat: 0
value: 98.423815
Number Constraints Used in Cover:107
GRASP Method!
Number cuts repeat: 0
value: 98.423815
Number Constraints Used in Cover:112
GRASP Method!
Number cuts repeat: 0
value: 98.423815
Number Constraints Used in Cover:118
GRASP Method!
Number cuts repeat: 0
value: 98.423815
Number Constraints Used in Cover:120
GRASP Method!
Number cuts repeat: 0
value: 98.423815
Number Constraints Used in Cover:126
GRASP Method!
Number cuts repeat: 0
value: 98.423815
Number Constraints Used in Cover:129
GRASP Method!
Number cuts repeat: 0
value: 98.423815
Number Constraints Used in Cover:140
GRASP Method!
Number cuts repeat: 0
value: 98.423815
Number Constraints Used in Cover:144
GRASP Method!
Number cuts repeat: 0
value: 98.423815
Number Constraints Used in Cover:146
GRASP Method!
Number cuts repeat: 0
value: 98.423815
Number Constraints Used in Cover:150
GRASP Method!
Number cuts repeat: 0
value: 98.423815
Number Constraints Used in Cover:153
GRASP Method!
Number cuts repeat: 0
value: 98.423815
Number Constraints Used in Cover:158
GRASP Method!
Number cuts repeat: 0
value: 98.423815
Number Constraints Used in Cover:164
GRASP Method!
Number cuts repeat: 0
value: 98.423815
Number Constraints Used in Cover:170
GRASP Method!
Number cuts repeat: 0
value: 98.423815
Number Constraints Used in Cover:174
GRASP Method!
Number cuts repeat: 0
value: 98.423815
Number Constraints Used in Cover:181
GRASP Method!
Number cuts repeat: 0
value: 98.423815
Number Constraints Used in Cover:193
GRASP Method!
Number cuts repeat: 0
value: 98.423815
Number Constraints Used in Cover:200
GRASP Method!
Number cuts repeat: 0
value: 98.423815
Number Constraints Used in Cover:207
GRASP Method!
Number cuts repeat: 0
value: 98.423815
Number Constraints Used in Cover:211
GRASP Method!
Number cuts repeat: 0
value: 98.423815
Number Constraints Used in Cover:214
GRASP Method!
Number cuts repeat: 0
value: 98.423815
Number Constraints Used in Cover:221
GRASP Method!
Number cuts repeat: 0
value: 98.423815
Number Constraints Used in Cover:225
GRASP Method!
Number cuts repeat: 0
value: 98.423815
Number Constraints Used in Cover:226
GRASP Method!
Number cuts repeat: 0
value: 98.423815
Number Constraints Used in Cover:230
GRASP Method!
Number cuts repeat: 0
value: 98.423815
Number Constraints Used in Cover:230
GRASP Method!
Number cuts repeat: 0
value: 98.423815
Number Constraints Used in Cover:236
GRASP Method!
Number cuts repeat: 0
value: 98.423815
Number Constraints Used in Cover:240
GRASP Method!
Number cuts repeat: 0
value: 98.423815
Number Constraints Used in Cover:250
GRASP Method!
Number cuts repeat: 0
value: 98.423815
Number Constraints Used in Cover:257
GRASP Method!
Number cuts repeat: 0
value: 98.423815
Number Constraints Used in Cover:262
GRASP Method!
Number cuts repeat: 0
value: 98.423815
Number Constraints Used in Cover:262
GRASP Method!
Number cuts repeat: 0
value: 98.423815
Number Constraints Used in Cover:270
GRASP Method!
Number cuts repeat: 0
value: 98.423815
Number Constraints Used in Cover:273
GRASP Method!
Number cuts repeat: 0
value: 98.423815
Number Constraints Used in Cover:277
GRASP Method!
Number cuts repeat: 0
value: 98.423815
Number Constraints Used in Cover:284
GRASP Method!
Number cuts repeat: 0
value: 98.423815
Number Constraints Used in Cover:287
GRASP Method!
Number cuts repeat: 0
value: 98.423815
Number Constraints Used in Cover:290
GRASP Method!
Number cuts repeat: 0
value: 98.423815
Number Constraints Used in Cover:294
GRASP Method!
Number cuts repeat: 0
value: 98.423815
Number Constraints Used in Cover:296
GRASP Method!
Number cuts repeat: 0
value: 98.423815
Number Constraints Used in Cover:303
GRASP Method!
Number cuts repeat: 0
value: 98.423815
Number Constraints Used in Cover:307
GRASP Method!
Number cuts repeat: 0
value: 98.423815
Number Constraints Used in Cover:311
GRASP Method!
Number cuts repeat: 0
value: 98.423815
Number Constraints Used in Cover:316
GRASP Method!
Number cuts repeat: 0
value: 98.423815
Number Constraints Used in Cover:320
GRASP Method!
Number cuts repeat: 0
value: 98.423815
Number Constraints Used in Cover:321
GRASP Method!
Number cuts repeat: 0
value: 98.423815
Number Constraints Used in Cover:326
GRASP Method!
Number cuts repeat: 0
value: 98.423815
Number Constraints Used in Cover:328
GRASP Method!
Number cuts repeat: 0
value: 98.423815
Number Constraints Used in Cover:331
GRASP Method!
Number cuts repeat: 0
value: 98.423815
Number Constraints Used in Cover:333
GRASP Method!
Number cuts repeat: 0
value: 98.423815
Number Constraints Used in Cover:334
GRASP Method!
Number cuts repeat: 0
value: 98.423815
Number Constraints Used in Cover:336
GRASP Method!
Number cuts repeat: 0
value: 98.423815
Number Constraints Used in Cover:340
GRASP Method!
Number cuts repeat: 0
value: 98.423815
Number Constraints Used in Cover:343
GRASP Method!
Number cuts repeat: 0
value: 98.423815
Number Constraints Used in Cover:345
GRASP Method!
Number cuts repeat: 0
value: 98.423815
Number Constraints Used in Cover:348
GRASP Method!
Number cuts repeat: 0
value: 98.423815
Number Constraints Used in Cover:348
GRASP Method!
Number cuts repeat: 0
value: 98.423815
Number Constraints Used in Cover:349
GRASP Method!
Number cuts repeat: 0
value: 98.423815
Number Constraints Used in Cover:352
GRASP Method!
Number cuts repeat: 0
value: 98.423815
Number Constraints Used in Cover:356
GRASP Method!
Number cuts repeat: 0
value: 98.423815
Number Constraints Used in Cover:358
GRASP Method!
Number cuts repeat: 0
value: 98.423815
Number Constraints Used in Cover:358
GRASP Method!
Number cuts repeat: 0
value: 98.423815
Number Constraints Used in Cover:359
GRASP Method!
Number cuts repeat: 0
value: 98.423815
Number Constraints Used in Cover:361
GRASP Method!
Number cuts repeat: 0
value: 98.423815
Number Constraints Used in Cover:362
GRASP Method!
Number cuts repeat: 0
value: 98.423815
Number Constraints Used in Cover:365
GRASP Method!
Number cuts repeat: 0
value: 98.423815
Number Constraints Used in Cover:366
GRASP Method!
Number cuts repeat: 0
value: 98.423815
Number Constraints Used in Cover:367
GRASP Method!
Number cuts repeat: 0
value: 98.423815
Number Constraints Used in Cover:371
GRASP Method!
Number cuts repeat: 0
value: 98.423815
Number Constraints Used in Cover:374
GRASP Method!
Number cuts repeat: 0
value: 98.423815
Number Constraints Used in Cover:375
GRASP Method!
Number cuts repeat: 0
value: 98.423815
Number Constraints Used in Cover:377
GRASP Method!
Number cuts repeat: 0
value: 98.423815
Number Constraints Used in Cover:377
GRASP Method!
Number cuts repeat: 0
value: 98.423815
Number Constraints Used in Cover:379
GRASP Method!
Number cuts repeat: 0
value: 98.423815
Number Constraints Used in Cover:380
GRASP Method!
Number cuts repeat: 0
value: 98.423815
Number Constraints Used in Cover:382
GRASP Method!
Number cuts repeat: 0
value: 98.423815
Number Constraints Used in Cover:385
GRASP Method!
Number cuts repeat: 0
value: 98.423815
Number Constraints Used in Cover:385
GRASP Method!
Number cuts repeat: 0
value: 98.217861
Number Constraints Used in Cover:390
GRASP Method!
Number cuts repeat: 0
value: 98.217861
Number Constraints Used in Cover:392
GRASP Method!
Number cuts repeat: 0
value: 98.217861
Number Constraints Used in Cover:395
GRASP Method!
Number cuts repeat: 0
value: 98.217861
Number Constraints Used in Cover:395
GRASP Method!
Number cuts repeat: 0
value: 98.217861
Number Constraints Used in Cover:398
GRASP Method!
Number cuts repeat: 0
value: 98.217861
Number Constraints Used in Cover:398
GRASP Method!
Number cuts repeat: 0
value: 98.217861
Number Constraints Used in Cover:401
GRASP Method!
Number cuts repeat: 0
value: 98.217861
Number Constraints Used in Cover:401
GRASP Method!
Number cuts repeat: 0
value: 98.217861
Number Constraints Used in Cover:401
GRASP Method!
Number cuts repeat: 0
value: 98.217861
Number Constraints Used in Cover:403
GRASP Method!
Number cuts repeat: 0
value: 98.217861
Number Constraints Used in Cover:405
GRASP Method!
Number cuts repeat: 0
value: 97.126146
Number Constraints Used in Cover:408
GRASP Method!
Number cuts repeat: 0
value: 97.126146
Number Constraints Used in Cover:410
GRASP Method!
Number cuts repeat: 0
value: 97.126146
Number Constraints Used in Cover:413
GRASP Method!
Number cuts repeat: 0
value: 97.126146
Number Constraints Used in Cover:417
GRASP Method!
Number cuts repeat: 0
value: 96.914926
Number Constraints Used in Cover:419
GRASP Method!
Number cuts repeat: 0
value: 96.914926
Number Constraints Used in Cover:421
GRASP Method!
Number cuts repeat: 0
value: 96.914926
Number Constraints Used in Cover:423
GRASP Method!
Number cuts repeat: 0
value: 96.914926
Number Constraints Used in Cover:423
GRASP Method!
Number cuts repeat: 0
value: 96.914926
Number Constraints Used in Cover:425
GRASP Method!
Number cuts repeat: 0
value: 96.914926
Number Constraints Used in Cover:427
GRASP Method!
Number cuts repeat: 0
value: 96.914926
Number Constraints Used in Cover:429
GRASP Method!
Number cuts repeat: 0
value: 96.914926
Number Constraints Used in Cover:430
GRASP Method!
Number cuts repeat: 0
value: 96.914926
Number Constraints Used in Cover:433
GRASP Method!
Number cuts repeat: 0
value: 96.914926
Number Constraints Used in Cover:435
GRASP Method!
Number cuts repeat: 0
value: 96.914926
Number Constraints Used in Cover:436
GRASP Method!
Number cuts repeat: 0
value: 96.914926
Number Constraints Used in Cover:438
GRASP Method!
Number cuts repeat: 0
value: 96.914926
Number Constraints Used in Cover:438
GRASP Method!
Number cuts repeat: 0
value: 96.914926
Number Constraints Used in Cover:442
GRASP Method!
Number cuts repeat: 0
value: 96.914926
Number Constraints Used in Cover:445
GRASP Method!
Number cuts repeat: 0
value: 96.914926
Number Constraints Used in Cover:447
GRASP Method!
Number cuts repeat: 0
value: 96.914926
Number Constraints Used in Cover:451
GRASP Method!
Number cuts repeat: 0
value: 96.914926
Number Constraints Used in Cover:452
GRASP Method!
Number cuts repeat: 0
value: 96.914926
Number Constraints Used in Cover:455
GRASP Method!
Number cuts repeat: 0
value: 96.914926
Number Constraints Used in Cover:457
GRASP Method!
Number cuts repeat: 0
value: 96.914926
Number Constraints Used in Cover:457
GRASP Method!
Number cuts repeat: 0
value: 96.914926
Number Constraints Used in Cover:458
GRASP Method!
Number cuts repeat: 0
value: 96.914926
Number Constraints Used in Cover:459
GRASP Method!
Number cuts repeat: 0
value: 96.914926
Number Constraints Used in Cover:460
GRASP Method!
Number cuts repeat: 0
value: 96.914926
Number Constraints Used in Cover:462
GRASP Method!
Number cuts repeat: 0
value: 96.914926
Number Constraints Used in Cover:462
GRASP Method!
Number cuts repeat: 0
value: 96.914926
Number Constraints Used in Cover:466
GRASP Method!
Number cuts repeat: 0
value: 96.914926
Number Constraints Used in Cover:469
GRASP Method!
Number cuts repeat: 0
value: 96.914926
Number Constraints Used in Cover:471
GRASP Method!
Number cuts repeat: 0
value: 96.914926
Number Constraints Used in Cover:474
GRASP Method!
Number cuts repeat: 0
value: 96.914926
Number Constraints Used in Cover:475
GRASP Method!
Number cuts repeat: 0
value: 96.914926
Number Constraints Used in Cover:479
GRASP Method!
Number cuts repeat: 0
value: 96.914926
Number Constraints Used in Cover:479
GRASP Method!
Number cuts repeat: 0
value: 96.914926
Number Constraints Used in Cover:481
GRASP Method!
Number cuts repeat: 0
value: 96.914926
Number Constraints Used in Cover:482
GRASP Method!
Number cuts repeat: 0
value: 96.914926
Number Constraints Used in Cover:482
GRASP Method!
Number cuts repeat: 0
value: 96.914926
Number Constraints Used in Cover:485
GRASP Method!
Number cuts repeat: 0
value: 96.914926
Number Constraints Used in Cover:486
GRASP Method!
Number cuts repeat: 0
value: 96.914926
Number Constraints Used in Cover:488
GRASP Method!
Number cuts repeat: 0
value: 96.914926
Number Constraints Used in Cover:489
GRASP Method!
Number cuts repeat: 0
value: 96.914926
Number Constraints Used in Cover:491
GRASP Method!
Number cuts repeat: 0
value: 96.914926
Number Constraints Used in Cover:492
GRASP Method!
Number cuts repeat: 0
value: 96.914926
Number Constraints Used in Cover:492
GRASP Method!
Number cuts repeat: 0
value: 96.914926
Number Constraints Used in Cover:494
GRASP Method!
Number cuts repeat: 0
value: 96.914926
Number Constraints Used in Cover:497
GRASP Method!
Number cuts repeat: 0
value: 96.914926
Number Constraints Used in Cover:498
GRASP Method!
Number cuts repeat: 0
value: 96.914926
Number Constraints Used in Cover:500
GRASP Method!
Number cuts repeat: 0
value: 96.914926
Number Constraints Used in Cover:500
GRASP Method!
Number cuts repeat: 0
value: 96.914926
Number Constraints Used in Cover:503
GRASP Method!
Number cuts repeat: 0
value: 96.914926
Number Constraints Used in Cover:503
GRASP Method!
Number cuts repeat: 0
value: 96.914926
Number Constraints Used in Cover:503
GRASP Method!
Number cuts repeat: 0
value: 96.914926
Number Constraints Used in Cover:504
GRASP Method!
Number cuts repeat: 0
value: 96.914926
Number Constraints Used in Cover:504
GRASP Method!
Number cuts repeat: 0
value: 96.914926
Number Constraints Used in Cover:505
GRASP Method!
Number cuts repeat: 0
value: 96.914926
Number Constraints Used in Cover:506
GRASP Method!
Number cuts repeat: 0
value: 96.914926
Number Constraints Used in Cover:506
GRASP Method!
Number cuts repeat: 0
value: 96.914926
Number Constraints Used in Cover:506
GRASP Method!
Number cuts repeat: 0
value: 96.914926
Number Constraints Used in Cover:506
GRASP Method!
Number cuts repeat: 0
value: 96.914926
Number Constraints Used in Cover:507
GRASP Method!
Number cuts repeat: 0
value: 96.914926
Number Constraints Used in Cover:507
GRASP Method!
Number cuts repeat: 0
value: 96.914926
Number Constraints Used in Cover:508
GRASP Method!
Number cuts repeat: 0
value: 96.914926
Number Constraints Used in Cover:509
GRASP Method!
Number cuts repeat: 0
value: 96.914926
Number Constraints Used in Cover:510
GRASP Method!
Number cuts repeat: 0
value: 96.914926
Number Constraints Used in Cover:512
GRASP Method!
Number cuts repeat: 0
value: 96.914926
Number Constraints Used in Cover:512
GRASP Method!
Number cuts repeat: 0
value: 96.914926
Number Constraints Used in Cover:513
GRASP Method!
Number cuts repeat: 0
value: 96.914926
Number Constraints Used in Cover:515
GRASP Method!
Number cuts repeat: 0
value: 96.914926
Number Constraints Used in Cover:515
GRASP Method!
Number cuts repeat: 0
value: 96.914926
Number Constraints Used in Cover:515
GRASP Method!
Number cuts repeat: 0
value: 96.914926
Number Constraints Used in Cover:515
GRASP Method!
Number cuts repeat: 0
value: 96.914926
Number Constraints Used in Cover:515
GRASP Method!
Number cuts repeat: 0
value: 96.914926
Number Constraints Used in Cover:515
GRASP Method!
Number cuts repeat: 0
value: 96.914926
Number Constraints Used in Cover:516
GRASP Method!
Number cuts repeat: 0
value: 96.914926
Number Constraints Used in Cover:518
GRASP Method!
Number cuts repeat: 0
value: 96.914926
Number Constraints Used in Cover:520
GRASP Method!
Number cuts repeat: 0
value: 96.914926
Number Constraints Used in Cover:521
GRASP Method!
Number cuts repeat: 0
value: 96.914926
Number Constraints Used in Cover:521
GRASP Method!
Number cuts repeat: 0
value: 96.914926
Number Constraints Used in Cover:521
GRASP Method!
Number cuts repeat: 0
value: 96.914926
Number Constraints Used in Cover:524
GRASP Method!
Number cuts repeat: 0
value: 96.914926
Number Constraints Used in Cover:526
GRASP Method!
Number cuts repeat: 0
value: 96.914926
Number Constraints Used in Cover:526
GRASP Method!
Number cuts repeat: 0
value: 96.914926
Number Constraints Used in Cover:526
GRASP Method!
Number cuts repeat: 0
value: 96.914926
Number Constraints Used in Cover:527
GRASP Method!
Number cuts repeat: 0
value: 96.914926
Number Constraints Used in Cover:527
GRASP Method!
Number cuts repeat: 0
value: 96.914926
Number Constraints Used in Cover:527
GRASP Method!
Number cuts repeat: 0
value: 96.904197
Number Constraints Used in Cover:528
GRASP Method!
Number cuts repeat: 0
value: 96.904197
Number Constraints Used in Cover:531
GRASP Method!
Number cuts repeat: 0
value: 96.904197
Number Constraints Used in Cover:531
GRASP Method!
Number cuts repeat: 0
value: 96.904197
Number Constraints Used in Cover:531
GRASP Method!
Number cuts repeat: 0
value: 96.904197
Number Constraints Used in Cover:531
GRASP Method!
Number cuts repeat: 0
value: 96.904197
Number Constraints Used in Cover:531
GRASP Method!
Number cuts repeat: 0
value: 96.904197
Number Constraints Used in Cover:531
GRASP Method!
Number cuts repeat: 0
value: 96.904197
Number Constraints Used in Cover:532
GRASP Method!
Number cuts repeat: 0
value: 96.904197
Number Constraints Used in Cover:532
GRASP Method!
Number cuts repeat: 0
value: 96.904197
Number Constraints Used in Cover:532
GRASP Method!
Number cuts repeat: 0
value: 96.904197
Number Constraints Used in Cover:533
GRASP Method!
Number cuts repeat: 0
value: 96.904197
Number Constraints Used in Cover:534
GRASP Method!
Number cuts repeat: 0
value: 96.904197
Number Constraints Used in Cover:534
GRASP Method!
Number cuts repeat: 0
value: 96.904197
Number Constraints Used in Cover:536
GRASP Method!
Number cuts repeat: 0
value: 96.904197
Number Constraints Used in Cover:536
GRASP Method!
Number cuts repeat: 0
value: 96.904197
Number Constraints Used in Cover:536
GRASP Method!
Number cuts repeat: 0
value: 96.904197
Number Constraints Used in Cover:536
GRASP Method!
Number cuts repeat: 0
value: 96.904197
Number Constraints Used in Cover:537
GRASP Method!
Number cuts repeat: 0
value: 96.904197
Number Constraints Used in Cover:537
GRASP Method!
Number cuts repeat: 0
value: 96.904197
Number Constraints Used in Cover:537
GRASP Method!
Number cuts repeat: 0
value: 96.904197
Number Constraints Used in Cover:537
GRASP Method!
Number cuts repeat: 0
value: 96.904197
Number Constraints Used in Cover:538
GRASP Method!
Number cuts repeat: 0
value: 96.904197
Number Constraints Used in Cover:539
GRASP Method!
Number cuts repeat: 0
value: 96.904197
Number Constraints Used in Cover:539
GRASP Method!
Number cuts repeat: 0
value: 96.904197
Number Constraints Used in Cover:539
GRASP Method!
Number cuts repeat: 0
value: 96.904197
Number Constraints Used in Cover:540
GRASP Method!
Number cuts repeat: 0
value: 96.904197
Number Constraints Used in Cover:540
GRASP Method!
Number cuts repeat: 0
value: 96.904197
Number Constraints Used in Cover:540
GRASP Method!
Number cuts repeat: 0
value: 96.904197
Number Constraints Used in Cover:541
GRASP Method!
Number cuts repeat: 0
value: 96.904197
Number Constraints Used in Cover:541
GRASP Method!
Number cuts repeat: 0
value: 96.904197
Number Constraints Used in Cover:543
GRASP Method!
Number cuts repeat: 0
value: 96.904197
Number Constraints Used in Cover:543
GRASP Method!
Number cuts repeat: 0
value: 96.904197
Number Constraints Used in Cover:543
GRASP Method!
Number cuts repeat: 0
value: 96.904197
Number Constraints Used in Cover:543
GRASP Method!
Number cuts repeat: 0
value: 96.904197
Number Constraints Used in Cover:543
GRASP Method!
Number cuts repeat: 0
value: 96.904197
Number Constraints Used in Cover:545
GRASP Method!
Number cuts repeat: 0
value: 96.904197
Number Constraints Used in Cover:547
GRASP Method!
Number cuts repeat: 0
value: 96.904197
Number Constraints Used in Cover:547
GRASP Method!
Number cuts repeat: 0
value: 96.904197
Number Constraints Used in Cover:547
GRASP Method!
Number cuts repeat: 0
value: 96.904197
Number Constraints Used in Cover:547
GRASP Method!
Number cuts repeat: 0
value: 96.904197
Number Constraints Used in Cover:547
GRASP Method!
Number cuts repeat: 0
value: 96.904197
Number Constraints Used in Cover:547
GRASP Method!
Number cuts repeat: 0
value: 96.904197
Number Constraints Used in Cover:547
GRASP Method!
Number cuts repeat: 0
value: 96.904197
Number Constraints Used in Cover:549
GRASP Method!
Number cuts repeat: 0
value: 96.904197
Number Constraints Used in Cover:551
GRASP Method!
Number cuts repeat: 0
value: 96.904197
Number Constraints Used in Cover:551
GRASP Method!
Number cuts repeat: 0
value: 96.904197
Number Constraints Used in Cover:552
GRASP Method!
Number cuts repeat: 0
value: 96.904197
Number Constraints Used in Cover:552
GRASP Method!
Number cuts repeat: 0
value: 96.904197
Number Constraints Used in Cover:552
GRASP Method!
Number cuts repeat: 0
value: 96.904197
Number Constraints Used in Cover:552
GRASP Method!
Number cuts repeat: 0
value: 96.904197
Number Constraints Used in Cover:552
GRASP Method!
Number cuts repeat: 0
value: 96.904197
Number Constraints Used in Cover:552
GRASP Method!
Number cuts repeat: 0
value: 96.904197
Number Constraints Used in Cover:552
GRASP Method!
Number cuts repeat: 0
value: 96.904197
Number Constraints Used in Cover:552
GRASP Method!
Number cuts repeat: 0
value: 96.904197
Number Constraints Used in Cover:552
GRASP Method!
Number cuts repeat: 0
value: 96.904197
Number Constraints Used in Cover:552
GRASP Method!
Number cuts repeat: 0
value: 96.904197
Number Constraints Used in Cover:553
GRASP Method!
Number cuts repeat: 0
value: 96.904197
Number Constraints Used in Cover:554
GRASP Method!
Number cuts repeat: 0
value: 96.904197
Number Constraints Used in Cover:555
GRASP Method!
Number cuts repeat: 0
value: 96.904197
Number Constraints Used in Cover:555
GRASP Method!
Number cuts repeat: 0
value: 96.904197
Number Cuts Final: 545
